; benchmark generated from python API
(set-info :status unknown)
(declare-fun DISJ_W_S2_R_S1 () Bool)
(declare-fun W_S2_V3 () Bool)
(declare-fun R_S2_V4 () Bool)
(declare-fun R_S2_V5 () Bool)
(declare-fun DISJ_W_S1_R_S1 () Bool)
(declare-fun W_S1_V5 () Bool)
(declare-fun R_S1_V1 () Bool)
(declare-fun W_S2_V5 () Bool)
(declare-fun DISJ_W_S1_R_S2 () Bool)
(declare-fun W_S1_V4 () Bool)
(declare-fun R_S1_V4 () Bool)
(declare-fun R_S1_V5 () Bool)
(declare-fun R_S2_V3 () Bool)
(declare-fun DISJ_W_S1_W_S2 () Bool)
(declare-fun DISJ_W_S2_R_S2 () Bool)
(declare-fun R_E1_V4 () Bool)
(declare-fun R_E1_V5 () Bool)
(declare-fun W_S2_V2 () Bool)
(declare-fun W_S2_V1 () Bool)
(declare-fun R_S2_V2 () Bool)
(declare-fun R_S2_V1 () Bool)
(declare-fun R_S1_V2 () Bool)
(declare-fun R_S1_V3 () Bool)
(declare-fun R_E1_V2 () Bool)
(declare-fun DISJ_W_S2_R_E1 () Bool)
(declare-fun R_E1_V3 () Bool)
(declare-fun W_S2_V4 () Bool)
(declare-fun W_S1_V3 () Bool)
(declare-fun W_S1_V2 () Bool)
(declare-fun W_S1_V1 () Bool)
(declare-fun R_E1_V1 () Bool)
(declare-fun DISJ_W_S1_R_E1 () Bool)
(assert
 (let (($x83 (not W_S2_V3)))
 (let (($x2175 (not R_S2_V4)))
 (let (($x1963 (not R_S2_V5)))
 (let (($x5319 (and $x1963 $x2175 $x83 DISJ_W_S2_R_S1)))
 (let (($x2125 (not $x5319)))
 (let (($x1769 (not W_S1_V5)))
 (let (($x1576 (not R_S1_V1)))
 (let (($x2360 (not (and $x1576 $x2175 $x1769 $x83 DISJ_W_S2_R_S1 DISJ_W_S1_R_S1))))
 (let (($x828 (not W_S2_V5)))
 (let (($x5877 (and $x2175 $x828 $x83 DISJ_W_S2_R_S1)))
 (let (($x3047 (not $x5877)))
 (let (($x1944 (not W_S1_V4)))
 (let (($x253 (not R_S1_V4)))
 (let (($x82 (not R_S1_V5)))
 (let (($x2824 (not (and $x82 $x253 $x1769 $x1944 DISJ_W_S1_R_S2))))
 (let (($x3149 (not (and $x253 $x1769 $x1944 $x828 DISJ_W_S1_R_S2))))
 (let (($x1842 (not (and $x1576 (not R_S2_V3) $x1944 $x828 DISJ_W_S2_R_S1 DISJ_W_S1_R_S1))))
 (let (($x5166 (not R_S2_V3)))
 (let (($x1134 (and $x5166 $x2175 $x828 DISJ_W_S2_R_S1)))
 (let (($x5053 (not $x1134)))
 (let (($x1279 (and DISJ_W_S1_R_S2 DISJ_W_S2_R_S1)))
 (let (($x4996 (not $x1279)))
 (let (($x2036 (not (and $x1576 DISJ_W_S2_R_S1 DISJ_W_S1_W_S2 DISJ_W_S1_R_S1))))
 (let (($x5201 (and DISJ_W_S2_R_S1 DISJ_W_S2_R_S2)))
 (let (($x2104 (not $x5201)))
 (let (($x2817 (not (and W_S1_V4 R_E1_V4))))
 (let (($x1645 (not (and W_S1_V5 R_E1_V5))))
 (let (($x4202 (forall ((V3_0 Int) )(forall ((V2_0 Int) )(forall ((V5_0 Int) )(forall ((V4_0 Int) )(forall ((MW_S1_V1 Bool) )(forall ((MW_S1_V3 Bool) )(forall ((MW_S1_V2 Bool) )(forall ((MW_S1_V5 Bool) )(forall ((MW_S1_V4 Bool) )(forall ((MW_S2_V1 Bool) )(forall ((MW_S2_V3 Bool) )(forall ((MW_S2_V2 Bool) )(forall ((MW_S2_V5 Bool) )(forall ((MW_S2_V4 Bool) )(forall ((S1_V1_!6074 Int) )(forall ((S1_V1_!6084 Int) )(forall ((S1_V1_!6095 Int) )(forall ((S1_V1_!6100 Int) )(forall ((S2_V5_!6082 Int) )(forall ((S2_V5_!6092 Int) )(forall ((S2_V5_!6109 Int) )(forall ((S2_V5_!6114 Int) )(forall ((S1_V3_!6075 Int) )(forall ((S1_V3_!6085 Int) )(forall ((S1_V3_!6096 Int) )(forall ((S1_V3_!6101 Int) )(forall ((S1_V2_!6076 Int) )(forall ((S1_V2_!6086 Int) )(forall ((S1_V2_!6097 Int) )(forall ((S1_V2_!6102 Int) )(forall ((E1_!6073 Int) )(forall ((E1_!6094 Int) )(forall ((E1_!6105 Int) )(forall ((S2_V4_!6083 Int) )(forall ((S2_V4_!6093 Int) )(forall ((S2_V4_!6110 Int) )(forall ((S2_V4_!6115 Int) )(forall ((S1_V5_!6077 Int) )(forall ((S1_V5_!6087 Int) )(forall ((S1_V5_!6098 Int) )(forall ((S1_V5_!6103 Int) )(forall ((S2_V1_!6079 Int) )(forall ((S2_V1_!6089 Int) )(forall ((S2_V1_!6106 Int) )(forall ((S2_V1_!6111 Int) )(forall ((S1_V4_!6078 Int) )(forall ((S1_V4_!6088 Int) )(forall ((S1_V4_!6099 Int) )(forall ((S1_V4_!6104 Int) )(forall ((S2_V2_!6081 Int) )(forall ((S2_V2_!6091 Int) )(forall ((S2_V2_!6108 Int) )(forall ((S2_V2_!6113 Int) )(forall ((S2_V3_!6080 Int) )(forall ((S2_V3_!6090 Int) )(forall ((S2_V3_!6107 Int) )(forall ((S2_V3_!6112 Int) )(let (($x5780 (= (ite MW_S2_V4 S2_V4_!6093 (ite MW_S1_V4 S1_V4_!6088 (ite MW_S2_V4 S2_V4_!6083 (ite MW_S1_V4 S1_V4_!6078 V4_0)))) (ite MW_S2_V4 S2_V4_!6115 (ite MW_S1_V4 S1_V4_!6104 V4_0)))))
 (let (($x1188 (= (ite MW_S2_V5 S2_V5_!6092 (ite MW_S1_V5 S1_V5_!6087 (ite MW_S2_V5 S2_V5_!6082 (ite MW_S1_V5 S1_V5_!6077 V5_0)))) (ite MW_S2_V5 S2_V5_!6114 (ite MW_S1_V5 S1_V5_!6103 V5_0)))))
 (let ((?x3833 (ite MW_S1_V2 S1_V2_!6102 V2_0)))
 (let ((?x812 (ite MW_S2_V2 S2_V2_!6113 ?x3833)))
 (let ((?x560 (ite MW_S1_V2 S1_V2_!6076 V2_0)))
 (let ((?x981 (ite MW_S2_V2 S2_V2_!6081 ?x560)))
 (let ((?x3380 (ite MW_S1_V2 S1_V2_!6086 ?x981)))
 (let ((?x2456 (ite MW_S2_V2 S2_V2_!6091 ?x3380)))
 (let (($x5942 (= (ite MW_S2_V3 S2_V3_!6090 (ite MW_S1_V3 S1_V3_!6085 (ite MW_S2_V3 S2_V3_!6080 (ite MW_S1_V3 S1_V3_!6075 V3_0)))) (ite MW_S2_V3 S2_V3_!6112 (ite MW_S1_V3 S1_V3_!6101 V3_0)))))
 (let ((?x1776 (ite MW_S2_V1 S2_V1_!6106 E1_!6105)))
 (let ((?x1781 (+ 1 ?x1776)))
 (let ((?x323 (ite MW_S2_V1 S2_V1_!6111 ?x1781)))
 (let ((?x2178 (ite MW_S1_V1 S1_V1_!6074 E1_!6073)))
 (let ((?x5920 (ite MW_S2_V1 S2_V1_!6079 ?x2178)))
 (let ((?x1875 (+ 1 ?x5920)))
 (let ((?x2168 (ite MW_S1_V1 S1_V1_!6084 ?x1875)))
 (let ((?x4855 (ite MW_S2_V1 S2_V1_!6089 ?x2168)))
 (let (($x4822 (>= (ite MW_S1_V1 S1_V1_!6100 (+ 1 (ite MW_S1_V1 S1_V1_!6095 E1_!6094))) (+ (- 1) ?x3833))))
 (let (($x146 (and (not (<= V2_0 E1_!6073)) (not (<= ?x981 ?x1875)) (>= ?x4855 (+ (- 1) ?x2456)) (not (<= V2_0 E1_!6094)) (not (<= (ite MW_S1_V2 S1_V2_!6097 V2_0) (+ 1 (ite MW_S1_V1 S1_V1_!6095 E1_!6094)))) $x4822 (not (<= ?x3833 E1_!6105)) (not (<= (ite MW_S2_V2 S2_V2_!6108 ?x3833) ?x1781)) (>= ?x323 (+ (- 1) ?x812)))))
 (let (($x144 (= S2_V3_!6112 S2_V3_!6090)))
 (let ((?x2556 (ite MW_S1_V4 S1_V4_!6078 V4_0)))
 (let ((?x455 (ite MW_S2_V4 S2_V4_!6083 ?x2556)))
 (let ((?x2869 (ite MW_S1_V4 S1_V4_!6088 ?x455)))
 (let ((?x291 (ite MW_S1_V4 S1_V4_!6104 V4_0)))
 (let ((?x5839 (ite MW_S2_V4 S2_V4_!6110 ?x291)))
 (let (($x2175 (not R_S2_V4)))
 (let ((?x5825 (ite MW_S1_V5 S1_V5_!6077 V5_0)))
 (let ((?x2211 (ite MW_S2_V5 S2_V5_!6082 ?x5825)))
 (let ((?x5317 (ite MW_S1_V5 S1_V5_!6087 ?x2211)))
 (let ((?x5739 (ite MW_S1_V5 S1_V5_!6103 V5_0)))
 (let ((?x1104 (ite MW_S2_V5 S2_V5_!6109 ?x5739)))
 (let (($x1963 (not R_S2_V5)))
 (let ((?x2732 (ite MW_S1_V3 S1_V3_!6075 V3_0)))
 (let ((?x819 (ite MW_S2_V3 S2_V3_!6080 ?x2732)))
 (let ((?x2059 (ite MW_S1_V3 S1_V3_!6085 ?x819)))
 (let ((?x2460 (ite MW_S1_V3 S1_V3_!6101 V3_0)))
 (let ((?x2210 (ite MW_S2_V3 S2_V3_!6107 ?x2460)))
 (let (($x5166 (not R_S2_V3)))
 (let (($x1209 (and (or (not R_S2_V1) (= ?x1776 (+ (- 1) ?x2168))) (or $x5166 (= ?x2210 ?x2059)) (or (not R_S2_V2) (= (ite MW_S2_V2 S2_V2_!6108 ?x3833) ?x3380)) (or $x1963 (= ?x1104 ?x5317)) (or $x2175 (= ?x5839 ?x2869)))))
 (let (($x3592 (not $x1209)))
 (let (($x5872 (= S2_V3_!6112 S2_V3_!6080)))
 (let (($x5282 (and (or (not R_S2_V1) (= ?x1776 (+ (- 1) ?x2178))) (or $x5166 (= ?x2210 ?x2732)) (or (not R_S2_V2) (= (ite MW_S2_V2 S2_V2_!6108 ?x3833) ?x560)) (or $x1963 (= ?x1104 ?x5825)) (or $x2175 (= ?x5839 ?x2556)))))
 (let (($x803 (not $x5282)))
 (let (($x1405 (= S2_V3_!6107 S2_V3_!6112)))
 (let (($x1718 (and (or (not R_S2_V1) (= E1_!6105 ?x1781)) (or $x5166 (= ?x2460 ?x2210)) (or (not R_S2_V2) (= ?x3833 (ite MW_S2_V2 S2_V2_!6108 ?x3833))) (or $x1963 (= ?x5739 ?x1104)) (or $x2175 (= ?x291 ?x5839)))))
 (let (($x329 (= S2_V3_!6107 S2_V3_!6090)))
 (let (($x1657 (and (or (not R_S2_V1) (= E1_!6105 ?x2168)) (or $x5166 (= ?x2460 ?x2059)) (or (not R_S2_V2) (= ?x3833 ?x3380)) (or $x1963 (= ?x5739 ?x5317)) (or $x2175 (= ?x291 ?x2869)))))
 (let (($x2778 (not $x1657)))
 (let (($x446 (= S2_V3_!6107 S2_V3_!6080)))
 (let (($x3066 (and (or (not R_S2_V1) (= E1_!6105 ?x2178)) (or $x5166 (= ?x2460 ?x2732)) (or (not R_S2_V2) (= ?x3833 ?x560)) (or $x1963 (= ?x5739 ?x5825)) (or $x2175 (= ?x291 ?x2556)))))
 (let (($x4810 (= S2_V3_!6090 S2_V3_!6080)))
 (let (($x2594 (and (or (not R_S2_V1) (= ?x2168 ?x2178)) (or $x5166 (= ?x2059 ?x2732)) (or (not R_S2_V2) (= ?x3380 ?x560)) (or $x1963 (= ?x5317 ?x5825)) (or $x2175 (= ?x2869 ?x2556)))))
 (let (($x3338 (not $x2594)))
 (let (($x2407 (= S2_V2_!6113 S2_V2_!6108)))
 (let (($x1852 (and (or (not R_S2_V1) (= ?x1776 (+ (- 1) E1_!6105))) (or $x5166 (= ?x2210 ?x2460)) (or (not R_S2_V2) (= (ite MW_S2_V2 S2_V2_!6108 ?x3833) ?x3833)) (or $x1963 (= ?x1104 ?x5739)) (or $x2175 (= ?x5839 ?x291)))))
 (let (($x2270 (not $x1852)))
 (let (($x1034 (= S2_V2_!6091 S2_V2_!6108)))
 (let (($x1221 (and (or (not R_S2_V1) (= ?x2168 E1_!6105)) (or $x5166 (= ?x2059 ?x2460)) (or (not R_S2_V2) (= ?x3380 ?x3833)) (or $x1963 (= ?x5317 ?x5739)) (or $x2175 (= ?x2869 ?x291)))))
 (let (($x1574 (not $x1221)))
 (let (($x1186 (= S2_V2_!6081 S2_V2_!6113)))
 (let (($x3666 (and (or (not R_S2_V1) (= ?x2178 ?x1781)) (or $x5166 (= ?x2732 ?x2210)) (or (not R_S2_V2) (= ?x560 (ite MW_S2_V2 S2_V2_!6108 ?x3833))) (or $x1963 (= ?x5825 ?x1104)) (or $x2175 (= ?x2556 ?x5839)))))
 (let (($x2284 (not $x3666)))
 (let (($x326 (= S2_V2_!6081 S2_V2_!6108)))
 (let (($x2100 (and (or (not R_S2_V1) (= ?x2178 E1_!6105)) (or $x5166 (= ?x2732 ?x2460)) (or (not R_S2_V2) (= ?x560 ?x3833)) (or $x1963 (= ?x5825 ?x5739)) (or $x2175 (= ?x2556 ?x291)))))
 (let (($x5706 (not $x2100)))
 (let (($x3636 (= S2_V2_!6081 S2_V2_!6091)))
 (let (($x909 (and (or (not R_S2_V1) (= ?x2178 ?x2168)) (or $x5166 (= ?x2732 ?x2059)) (or (not R_S2_V2) (= ?x560 ?x3380)) (or $x1963 (= ?x5825 ?x5317)) (or $x2175 (= ?x2556 ?x2869)))))
 (let (($x1691 (not $x909)))
 (let (($x2725 (= S1_V4_!6104 S1_V4_!6088)))
 (let (($x3108 (and (or (not R_S1_V1) (= (ite MW_S1_V1 S1_V1_!6095 E1_!6094) ?x5920)) (or (not R_S1_V3) (= (ite MW_S1_V3 S1_V3_!6096 V3_0) ?x819)) (or (not R_S1_V2) (= (ite MW_S1_V2 S1_V2_!6097 V2_0) ?x981)) (or (not R_S1_V5) (= (ite MW_S1_V5 S1_V5_!6098 V5_0) ?x2211)) (or (not R_S1_V4) (= (ite MW_S1_V4 S1_V4_!6099 V4_0) ?x455)))))
 (let (($x1317 (not $x3108)))
 (let (($x253 (not R_S1_V4)))
 (let (($x3845 (or $x253 (= (ite MW_S1_V4 S1_V4_!6099 V4_0) V4_0))))
 (let (($x82 (not R_S1_V5)))
 (let (($x5108 (or $x82 (= (ite MW_S1_V5 S1_V5_!6098 V5_0) V5_0))))
 (let (($x4928 (not R_S1_V2)))
 (let (($x6074 (or $x4928 (= (ite MW_S1_V2 S1_V2_!6097 V2_0) V2_0))))
 (let (($x3125 (not R_S1_V3)))
 (let (($x928 (or $x3125 (= (ite MW_S1_V3 S1_V3_!6096 V3_0) V3_0))))
 (let (($x3130 (and (or (not R_S1_V1) (= (ite MW_S1_V1 S1_V1_!6095 E1_!6094) (+ (- 1) E1_!6073))) $x928 $x6074 $x5108 $x3845)))
 (let (($x717 (not $x3130)))
 (let (($x2895 (or $x253 (= V4_0 (ite MW_S1_V4 S1_V4_!6099 V4_0)))))
 (let (($x1747 (or $x82 (= V5_0 (ite MW_S1_V5 S1_V5_!6098 V5_0)))))
 (let (($x2636 (or $x4928 (= V2_0 (ite MW_S1_V2 S1_V2_!6097 V2_0)))))
 (let (($x3995 (or $x3125 (= V3_0 (ite MW_S1_V3 S1_V3_!6096 V3_0)))))
 (let (($x959 (and (or (not R_S1_V1) (= E1_!6094 (+ 1 (ite MW_S1_V1 S1_V1_!6095 E1_!6094)))) $x3995 $x2636 $x1747 $x2895)))
 (let (($x963 (not $x959)))
 (let (($x3169 (= S1_V4_!6099 S1_V4_!6088)))
 (let (($x2666 (or $x253 (= V4_0 ?x455))))
 (let (($x1888 (or $x82 (= V5_0 ?x2211))))
 (let (($x2344 (or $x4928 (= V2_0 ?x981))))
 (let (($x2911 (or $x3125 (= V3_0 ?x819))))
 (let (($x3779 (not (and (or (not R_S1_V1) (= E1_!6094 ?x1875)) $x2911 $x2344 $x1888 $x2666))))
 (let (($x5962 (or $x253 (= ?x455 V4_0))))
 (let (($x867 (or $x82 (= ?x2211 V5_0))))
 (let (($x2807 (or $x4928 (= ?x981 V2_0))))
 (let (($x2737 (or $x3125 (= ?x819 V3_0))))
 (let (($x5924 (and (or (not R_S1_V1) (= ?x5920 (+ (- 1) E1_!6073))) $x2737 $x2807 $x867 $x5962)))
 (let (($x1597 (not $x5924)))
 (let (($x2612 (= S2_V1_!6089 S2_V1_!6111)))
 (let (($x2393 (and (or (not R_S2_V1) (= ?x2168 ?x1781)) (or $x5166 (= ?x2059 ?x2210)) (or (not R_S2_V2) (= ?x3380 (ite MW_S2_V2 S2_V2_!6108 ?x3833))) (or $x1963 (= ?x5317 ?x1104)) (or $x2175 (= ?x2869 ?x5839)))))
 (let (($x5958 (not $x2393)))
 (let (($x4238 (= S1_V5_!6103 S1_V5_!6098)))
 (let (($x5999 (and (or (not R_S1_V1) (= (ite MW_S1_V1 S1_V1_!6095 E1_!6094) (+ (- 1) E1_!6094))) $x928 $x6074 $x5108 $x3845)))
 (let (($x4175 (not $x5999)))
 (let (($x181 (or (not (and (or (not R_S1_V1) (= E1_!6073 ?x1875)) $x2911 $x2344 $x1888 $x2666)) (= S1_V5_!6077 S1_V5_!6087))))
 (let (($x2201 (and (or (not R_E1_V2) (= ?x3833 V2_0)) (or (not R_E1_V5) (= ?x5739 V5_0)) (or (not R_E1_V4) (= ?x291 V4_0)))))
 (let (($x2840 (= E1_!6073 E1_!6105)))
 (let (($x2485 (and (or (not R_E1_V2) (= V2_0 ?x3833)) (or (not R_E1_V5) (= V5_0 ?x5739)) (or (not R_E1_V4) (= V4_0 ?x291)))))
 (let (($x125 (= E1_!6073 E1_!6094)))
 (let (($x2278 (and (or (not R_S1_V1) (= ?x5920 (ite MW_S1_V1 S1_V1_!6095 E1_!6094))) (or $x3125 (= ?x819 (ite MW_S1_V3 S1_V3_!6096 V3_0))) (or $x4928 (= ?x981 (ite MW_S1_V2 S1_V2_!6097 V2_0))) (or $x82 (= ?x2211 (ite MW_S1_V5 S1_V5_!6098 V5_0))) (or $x253 (= ?x455 (ite MW_S1_V4 S1_V4_!6099 V4_0))))))
 (let (($x2518 (not $x2278)))
 (let (($x1896 (and (or (not R_S1_V1) (= ?x5920 (+ (- 1) E1_!6094))) $x2737 $x2807 $x867 $x5962)))
 (let (($x2311 (not $x1896)))
 (let (($x3270 (and (or (not R_S1_V1) (= E1_!6073 (+ 1 (ite MW_S1_V1 S1_V1_!6095 E1_!6094)))) $x3995 $x2636 $x1747 $x2895)))
 (let (($x573 (not $x3270)))
 (let (($x2676 (and (or $x573 (= S1_V1_!6074 S1_V1_!6100)) (or $x1597 (= S1_V1_!6084 S1_V1_!6074)) (or $x2311 (= S1_V1_!6084 S1_V1_!6095)) (or $x2518 (= S1_V1_!6084 S1_V1_!6100)) (or (not (or (not R_S1_V1) (= E1_!6094 E1_!6073))) (= S1_V1_!6095 S1_V1_!6074)) (or $x963 (= S1_V1_!6095 S1_V1_!6100)) (or $x5706 (= S2_V5_!6082 S2_V5_!6109)) (or $x2284 (= S2_V5_!6082 S2_V5_!6114)) (or $x3338 (= S2_V5_!6092 S2_V5_!6082)) (or $x1574 (= S2_V5_!6092 S2_V5_!6109)) (or $x5958 (= S2_V5_!6092 S2_V5_!6114)) (or $x2270 (= S2_V5_!6114 S2_V5_!6109)) (or (not (or (not R_S1_V1) $x125)) (= S1_V3_!6075 S1_V3_!6096)) (or $x1597 (= S1_V3_!6085 S1_V3_!6075)) (or $x2311 (= S1_V3_!6085 S1_V3_!6096)) (or $x2518 (= S1_V3_!6085 S1_V3_!6101)) (or $x717 (= S1_V3_!6101 S1_V3_!6075)) (or $x4175 (= S1_V3_!6101 S1_V3_!6096)) (or $x573 (= S1_V2_!6076 S1_V2_!6102)) (or $x1597 (= S1_V2_!6086 S1_V2_!6076)) (or $x2311 (= S1_V2_!6086 S1_V2_!6097)) (or $x2518 (= S1_V2_!6086 S1_V2_!6102)) (or (not (or (not R_S1_V1) (= E1_!6094 E1_!6073))) (= S1_V2_!6097 S1_V2_!6076)) (or $x963 (= S1_V2_!6097 S1_V2_!6102)) $x125 (or (not $x2485) $x2840) (or (not $x2201) (= E1_!6105 E1_!6094)) (or $x1691 (= S2_V4_!6083 S2_V4_!6093)) (or $x5706 (= S2_V4_!6083 S2_V4_!6110)) (or $x2778 (= S2_V4_!6110 S2_V4_!6093)) (or $x803 (= S2_V4_!6115 S2_V4_!6083)) (or $x3592 (= S2_V4_!6115 S2_V4_!6093)) (or $x2270 (= S2_V4_!6115 S2_V4_!6110)) $x181 (or (not (or (not R_S1_V1) $x125)) (= S1_V5_!6077 S1_V5_!6098)) (or $x3779 (= S1_V5_!6098 S1_V5_!6087)) (or $x717 (= S1_V5_!6103 S1_V5_!6077)) (or $x1317 (= S1_V5_!6103 S1_V5_!6087)) (or $x4175 $x4238) (or $x1691 (= S2_V1_!6079 S2_V1_!6089)) (or $x5706 (= S2_V1_!6079 S2_V1_!6106)) (or $x2284 (= S2_V1_!6079 S2_V1_!6111)) (or $x1574 (= S2_V1_!6089 S2_V1_!6106)) (or $x5958 $x2612) (or $x2270 (= S2_V1_!6111 S2_V1_!6106)) (or $x1597 (= S1_V4_!6088 S1_V4_!6078)) (or (not (or (not R_S1_V1) (= E1_!6094 E1_!6073))) (= S1_V4_!6099 S1_V4_!6078)) (or $x3779 $x3169) (or $x963 (= S1_V4_!6099 S1_V4_!6104)) (or $x717 (= S1_V4_!6104 S1_V4_!6078)) (or $x1317 $x2725) (or $x1691 $x3636) (or $x5706 $x326) (or $x2284 $x1186) (or $x1574 $x1034) (or $x3592 (= S2_V2_!6113 S2_V2_!6091)) (or $x2270 $x2407) (or $x3338 $x4810) (or (not $x3066) $x446) (or $x2778 $x329) (or (not $x1718) $x1405) (or $x803 $x5872) (or $x3592 $x144) (not MW_S1_V1) (not MW_S1_V2) (or (not MW_S1_V5) W_S1_V5) (or (not MW_S1_V4) W_S1_V4) (or (not MW_S2_V1) W_S2_V1) (or (not MW_S2_V3) W_S2_V3) (or (not MW_S2_V2) W_S2_V2) (or (not MW_S2_V5) W_S2_V5))))
 (or (not $x2676) (not $x146) (and (= ?x4855 ?x323) $x5942 (= ?x2456 ?x812) $x1188 $x5780))))))))))))))))))))))))))))))))))))))))))))))))))))))))))))))))))))))))))))))))))))))))))))))))))))))))))))))))))))))))
 )
 )
 )
 )
 )
 )
 )
 )
 )
 )
 )
 )
 )
 )
 )
 )
 )
 )
 )
 )
 )
 )
 )
 )
 )
 )
 )
 )
 )
 )
 )
 )
 )
 )
 )
 )
 )
 )
 )
 )
 )
 )
 )
 )
 )
 )
 )
 )
 )
 )
 )
 )
 )
 )
 )
 )
 ))
 (let (($x1406 (or (and W_S2_V2 R_E1_V2) (and W_S2_V5 R_E1_V5) R_E1_V4)))
 (let (($x284 (= DISJ_W_S2_R_E1 (not $x1406))))
 (let (($x2024 (and W_S2_V5 R_S2_V5)))
 (let (($x3156 (and W_S2_V2 R_S2_V2)))
 (let (($x2657 (and W_S2_V3 R_S2_V3)))
 (let (($x2411 (and W_S2_V1 R_S2_V1)))
 (let (($x3752 (= DISJ_W_S2_R_S2 (not (or $x2411 $x2657 $x3156 $x2024 R_S2_V4)))))
 (let (($x3055 (and W_S2_V5 R_S1_V5)))
 (let (($x1409 (and W_S2_V2 R_S1_V2)))
 (let (($x3728 (and W_S2_V3 R_S1_V3)))
 (let (($x3184 (and W_S2_V1 R_S1_V1)))
 (let (($x498 (= DISJ_W_S2_R_S1 (not (or $x3184 $x3728 $x1409 $x3055 R_S1_V4)))))
 (let (($x318 (= DISJ_W_S1_W_S2 (not (or W_S2_V3 (and W_S1_V5 W_S2_V5) W_S1_V4)))))
 (let (($x723 (not R_E1_V3)))
 (let (($x3599 (not (or R_S2_V3 (and W_S1_V5 R_S2_V5) (and W_S1_V4 R_S2_V4)))))
 (let (($x4528 (= DISJ_W_S1_R_S2 $x3599)))
 (let (($x4632 (not (or R_S1_V3 (and W_S1_V5 R_S1_V5) (and W_S1_V4 R_S1_V4)))))
 (let (($x1403 (= DISJ_W_S1_R_S1 $x4632)))
 (let (($x3189 (not W_S2_V2)))
 (let (($x2853 (not R_S2_V1)))
 (let (($x2933 (and $x2853 $x5166 $x3189 $x828 DISJ_W_S2_R_S1)))
 (let (($x3037 (and $x2853 $x1963 $x3189 $x83 DISJ_W_S2_R_S1)))
 (let (($x3192 (and $x2853 $x3189 $x828 $x83 DISJ_W_S2_R_S1)))
 (let (($x2771 (and $x2853 $x5166 $x1963 $x3189 DISJ_W_S2_R_S1)))
 (let (($x3518 (and $x2853 $x2175 $x3189 $x828 DISJ_W_S2_R_S1)))
 (let (($x84 (and $x2853 $x1963 $x2175 $x3189 DISJ_W_S2_R_S1)))
 (let (($x2473 (and $x2853 $x2175 $x3189 $x83 DISJ_W_S2_R_S1)))
 (let (($x5175 (and $x2853 $x5166 $x2175 $x3189 DISJ_W_S2_R_S1)))
 (let (($x3246 (and $x1963 $x1944 $x83 DISJ_W_S2_R_S1)))
 (let (($x5923 (and $x2175 $x1769 $x83 DISJ_W_S2_R_S1)))
 (let (($x4054 (and DISJ_W_S1_W_S2 DISJ_W_S2_R_S1)))
 (let (($x2431 (and $x5166 $x1944 $x828 DISJ_W_S2_R_S1)))
 (let (($x1801 (and (not W_S2_V1) $x3189)))
 (let (($x3623 (and $x3189 DISJ_W_S2_R_S2)))
 (let (($x2152 (or $x5201 $x3623 $x1279 $x1134 $x1801 $x2431 $x4054 $x5877 $x5923 $x5319 $x3246 $x5175 $x2473 $x84 $x3518 $x2771 $x3192 $x3037 $x2933)))
 (let (($x1515 (or (and $x3189 DISJ_W_S2_R_S1 DISJ_W_S1_R_S1) $x1801 (and $x1576 DISJ_W_S1_R_S1))))
 (let (($x743 (not W_S1_V2)))
 (let (($x565 (not W_S1_V1)))
 (let (($x3095 (not R_E1_V1)))
 (let (($x2646 (and DISJ_W_S1_R_E1 $x3095 $x565 $x743 $x1515 $x2152 W_S1_V3 W_S2_V4 $x1403 $x4528 $x723 $x318 $x498 $x3752 $x284 $x4202 $x1645 $x2817)))
 (and $x2646 $x2104 $x2036 $x4996 $x5053 $x1842 $x3149 $x2824 $x3047 $x2360 $x2125))))))))))))))))))))))))))))))))))))))))))))))))))))))))))))))))))))))
(check-sat)
